(set-logic QF_UF)
(declare-fun A0 () Bool)
(declare-fun A1 () Bool)
(declare-fun A2 () Bool)
(declare-fun A3 () Bool)
(declare-fun A4 () Bool)
(declare-fun A5 () Bool)
(declare-fun A6 () Bool)
(declare-fun A7 () Bool)
(declare-fun A8 () Bool)
(declare-fun A9 () Bool)
(declare-fun A11 () Bool)
(declare-fun A12 () Bool)
(declare-fun A14 () Bool)
(declare-fun A15 () Bool)
(declare-fun A16 () Bool)
(declare-fun A17 () Bool)
(declare-fun A18 () Bool)
(declare-fun A19 () Bool)
(declare-fun A21 () Bool)
(declare-fun A22 () Bool)
(declare-fun A23 () Bool)
(declare-fun A26 () Bool)
(declare-fun A27 () Bool)
(declare-fun A28 () Bool)
(declare-fun A29 () Bool)
(assert (let ((.def_0 (or A27 A7))) (let ((.def_1 (not .def_0))) (let ((.def_2 (not A27))) (let ((.def_3 (not A8))) (let ((.def_4 (and .def_3 .def_2))) (let ((.def_5 (not .def_4))) (let ((.def_6 (and .def_5 .def_1))) (let ((.def_7 (not .def_6))) (let ((.def_8 (not A14))) (let ((.def_9 (and .def_8 A4))) (let ((.def_10 (or A9 A28))) (let ((.def_11 (and .def_10 .def_9))) (let ((.def_12 (not .def_11))) (let ((.def_13 (or .def_12 .def_7))) (let ((.def_14 (or A15 A23))) (let ((.def_15 (not .def_14))) (let ((.def_16 (not A7))) (let ((.def_17 (= A28 .def_16))) (let ((.def_18 (and .def_17 .def_15))) (let ((.def_19 (not A11))) (let ((.def_20 (or A1 .def_19))) (let ((.def_21 (not .def_20))) (let ((.def_22 (not A21))) (let ((.def_23 (and A19 .def_22))) (let ((.def_24 (not .def_23))) (let ((.def_25 (= .def_24 .def_21))) (let ((.def_26 (not .def_25))) (let ((.def_27 (and .def_26 .def_18))) (let ((.def_28 (or .def_27 .def_13))) (let ((.def_29 (not A12))) (let ((.def_30 (not A23))) (let ((.def_31 (and .def_30 .def_29))) (let ((.def_32 (not A17))) (let ((.def_33 (and .def_32 A28))) (let ((.def_34 (and .def_33 .def_31))) (let ((.def_35 (not .def_34))) (let ((.def_36 (not A6))) (let ((.def_37 (or .def_36 .def_19))) (let ((.def_38 (not .def_37))) (let ((.def_39 (not A22))) (let ((.def_40 (not A9))) (let ((.def_41 (or .def_40 .def_39))) (let ((.def_42 (or .def_41 .def_38))) (let ((.def_43 (not .def_42))) (let ((.def_44 (and .def_43 .def_35))) (let ((.def_45 (not .def_44))) (let ((.def_46 (or .def_16 .def_3))) (let ((.def_47 (and A17 .def_39))) (let ((.def_48 (and .def_47 .def_46))) (let ((.def_49 (or A4 .def_30))) (let ((.def_50 (not A28))) (let ((.def_51 (or .def_50 A2))) (let ((.def_52 (not .def_51))) (let ((.def_53 (and .def_52 .def_49))) (let ((.def_54 (or .def_53 .def_48))) (let ((.def_55 (or .def_54 .def_45))) (let ((.def_56 (not .def_55))) (let ((.def_57 (and .def_56 .def_28))) (let ((.def_58 (= A19 A4))) (let ((.def_59 (not .def_58))) (let ((.def_60 (and A6 .def_40))) (let ((.def_61 (or .def_60 .def_59))) (let ((.def_62 (not .def_61))) (let ((.def_63 (and A28 A23))) (let ((.def_64 (or .def_30 A15))) (let ((.def_65 (not .def_64))) (let ((.def_66 (or .def_65 .def_63))) (let ((.def_67 (not .def_66))) (let ((.def_68 (or .def_67 .def_62))) (let ((.def_69 (not .def_68))) (let ((.def_70 (not A1))) (let ((.def_71 (or .def_70 A7))) (let ((.def_72 (not .def_71))) (let ((.def_73 (or A2 A7))) (let ((.def_74 (or .def_73 .def_72))) (let ((.def_75 (not A15))) (let ((.def_76 (or .def_75 A0))) (let ((.def_77 (not .def_76))) (let ((.def_78 (and .def_36 A3))) (let ((.def_79 (or .def_78 .def_77))) (let ((.def_80 (and .def_79 .def_74))) (let ((.def_81 (not .def_80))) (let ((.def_82 (or .def_81 .def_69))) (let ((.def_83 (not .def_82))) (let ((.def_84 (not A16))) (let ((.def_85 (and A0 .def_84))) (let ((.def_86 (not .def_85))) (let ((.def_87 (not A26))) (let ((.def_88 (not A29))) (let ((.def_89 (or .def_88 .def_87))) (let ((.def_90 (or .def_89 .def_86))) (let ((.def_91 (= A18 .def_87))) (let ((.def_92 (not .def_91))) (let ((.def_93 (and .def_22 A29))) (let ((.def_94 (and .def_93 .def_92))) (let ((.def_95 (not .def_94))) (let ((.def_96 (or .def_95 .def_90))) (let ((.def_97 (not A5))) (let ((.def_98 (or .def_97 A5))) (let ((.def_99 (not .def_98))) (let ((.def_100 (not A0))) (let ((.def_101 (or A7 .def_100))) (let ((.def_102 (and .def_101 .def_99))) (let ((.def_103 (and .def_30 A14))) (let ((.def_104 (not .def_103))) (let ((.def_105 (and .def_50 .def_75))) (let ((.def_106 (not .def_105))) (let ((.def_107 (or .def_106 .def_104))) (let ((.def_108 (not .def_107))) (let ((.def_109 (or .def_108 .def_102))) (let ((.def_110 (not .def_109))) (let ((.def_111 (and .def_110 .def_96))) (let ((.def_112 (or .def_111 .def_83))) (let ((.def_113 (and .def_112 .def_57))) (let ((.def_114 (not .def_113))) .def_114))))))))))))))))))))))))))))))))))))))))))))))))))))))))))))))))))))))))))))))))))))))))))))))))))))))))))))))))))))
(check-sat)
